 200 44 
 29 36 66 29 21 45 33 9 68 40 60 53 
 53 8 48 18 32 59 56 100 96 92 55 79 
 62 46 7 7 34 47 15 13 64 56 91 87 
 45 54 36 46 23 39 51 58 
 17 
 2 5 8 9 14 16 20 23 25 26 27 37 
 39 41 42 43 44 
 2 
 6 22 
 6 
 13 14 18 33 40 42 
 4 
 1 7 22 40 
 44 
 1 2 3 4 5 6 7 8 9 10 11 12 
 13 14 15 16 17 18 19 20 21 22 23 24 
 25 26 27 28 29 30 31 32 33 34 35 36 
 37 38 39 40 41 42 43 44 
 25 
 2 3 4 7 8 9 13 14 15 16 18 21 
 22 23 26 29 30 31 32 34 37 40 41 42 
 43 
 36 
 2 3 4 5 6 7 8 9 11 12 13 15 
 16 18 20 21 22 23 24 25 26 28 29 30 
 31 32 33 34 35 36 37 38 40 41 42 43 
 6 
 28 31 32 39 43 44 
 16 
 1 2 5 6 8 11 17 18 19 20 22 28 
 31 38 39 44 
 4 
 28 37 38 39 
 3 
 13 18 20 
 27 
 1 4 5 7 8 9 13 16 18 19 20 22 
 23 26 27 29 30 31 32 35 37 38 39 40 
 41 42 43 
 44 
 1 2 3 4 5 6 7 8 9 10 11 12 
 13 14 15 16 17 18 19 20 21 22 23 24 
 25 26 27 28 29 30 31 32 33 34 35 36 
 37 38 39 40 41 42 43 44 
 40 
 2 3 4 5 6 7 8 10 11 12 13 14 
 15 17 18 19 20 21 22 23 24 25 26 27 
 28 29 30 31 32 33 34 35 36 38 39 40 
 41 42 43 44 
 43 
 1 2 3 4 5 6 7 8 9 10 11 12 
 13 14 15 16 17 18 19 20 21 22 23 24 
 26 27 28 29 30 31 32 33 34 35 36 37 
 38 39 40 41 42 43 44 
 24 
 1 4 5 6 10 13 14 16 17 19 23 26 
 28 29 30 31 32 33 34 36 37 40 42 43 
 13 
 6 8 10 11 12 13 14 15 18 22 28 33 
 34 
 8 
 8 9 12 18 27 31 32 34 
 5 
 2 10 11 19 21 
 9 
 9 13 15 20 23 28 35 36 37 
 33 
 1 2 3 4 6 7 8 11 13 14 15 16 
 17 20 21 22 23 24 25 26 27 28 29 30 
 31 34 35 36 37 38 39 40 41 
 40 
 2 3 4 5 6 7 8 9 10 11 12 13 
 14 15 16 17 18 19 20 21 22 24 25 27 
 28 29 30 31 32 33 34 35 36 37 38 39 
 41 42 43 44 
 19 
 3 5 7 9 13 15 18 20 21 24 26 27 
 28 31 33 35 38 40 43 
 34 
 1 3 4 5 6 9 10 11 12 13 14 15 
 16 17 18 19 20 21 22 25 26 28 29 30 
 31 32 33 34 35 37 39 41 42 44 
 26 
 3 4 5 6 9 10 11 12 13 16 18 19 
 20 23 24 25 27 29 30 31 33 34 35 37 
 39 44 
 31 
 1 2 4 5 7 8 10 11 12 13 14 15 
 16 18 19 21 22 23 25 27 28 29 30 32 
 34 35 38 40 41 42 43 
 38 
 1 2 3 4 5 7 9 10 11 12 13 14 
 15 16 17 18 19 20 21 22 23 24 25 27 
 28 30 32 33 34 35 36 37 38 39 40 41 
 43 44 
 29 
 1 2 4 5 6 7 8 9 11 14 16 18 
 20 23 28 29 30 32 33 34 35 36 37 38 
 40 41 42 43 44 
 17 
 4 7 10 16 17 18 19 22 25 28 29 36 
 37 40 41 42 44 
 15 
 2 7 9 10 16 24 25 26 30 31 33 35 
 40 41 43 
 4 
 1 10 11 36 
 18 
 1 2 6 11 15 16 19 20 21 22 25 28 
 29 30 36 39 42 44 
 10 
 1 5 7 10 15 18 20 24 43 44 
 29 
 2 3 4 6 7 8 9 10 15 17 18 21 
 23 24 25 27 28 29 30 31 33 34 35 37 
 38 39 42 43 44 
 29 
 2 4 5 6 8 9 11 12 13 15 16 19 
 21 22 23 24 28 29 30 33 34 35 36 37 
 38 39 42 43 44 
 17 
 2 5 9 10 15 16 24 26 28 29 32 33 
 37 38 39 41 42 
 30 
 1 2 3 4 7 9 12 13 15 16 17 18 
 21 22 23 26 28 29 31 32 33 34 35 36 
 37 38 40 41 42 44 
 19 
 1 2 9 10 11 12 13 16 18 24 28 30 
 32 36 39 40 41 42 43 
 25 
 1 2 3 4 5 8 9 10 11 12 14 15 
 18 20 24 25 26 27 31 35 36 37 38 39 
 44 
 9 
 7 12 13 16 31 37 39 42 43 
 18 
 2 3 4 6 9 12 16 22 23 30 31 35 
 36 37 39 42 43 44 
 33 
 1 2 4 5 6 7 8 9 10 12 13 17 
 18 19 20 21 22 23 24 25 26 28 30 31 
 33 35 36 38 39 40 41 43 44 
 25 
 1 3 5 6 7 9 10 11 12 13 16 17 
 18 21 22 23 27 31 32 36 37 38 40 41 
 42 
 35 
 1 2 3 4 6 7 8 10 11 12 13 14 
 15 17 18 21 22 23 24 29 30 31 32 33 
 34 35 36 37 38 39 40 41 42 43 44 
 33 
 1 3 4 5 6 7 8 9 10 11 12 13 
 14 15 18 19 20 21 22 23 25 26 28 29 
 31 34 35 36 37 40 41 42 44 
 21 
 3 7 9 11 12 13 14 16 17 22 23 24 
 25 27 31 33 34 35 36 42 43 
 18 
 1 2 4 6 7 8 9 12 13 15 18 19 
 20 25 26 32 36 44 
 41 
 1 2 3 4 5 6 7 8 9 10 11 12 
 13 14 17 18 19 20 22 23 24 25 26 27 
 28 29 30 31 32 33 34 35 36 37 38 39 
 40 41 42 43 44 
 34 
 1 2 4 7 8 9 10 12 13 14 16 17 
 18 20 21 22 23 24 25 26 27 28 29 30 
 31 32 33 35 36 37 38 39 41 43 
 15 
 4 5 9 11 15 16 19 25 27 28 33 34 
 39 41 43 
 41 
 1 2 3 4 5 6 7 8 9 10 12 13 
 14 15 16 17 18 19 20 21 22 24 25 26 
 27 28 29 30 31 33 34 35 36 37 38 39 
 40 41 42 43 44 
 17 
 1 3 5 6 7 13 14 18 21 22 24 35 
 36 38 39 41 43 
 7 
 9 17 20 21 25 26 41 
 25 
 1 2 3 5 7 8 10 11 12 15 18 19 
 20 21 23 24 27 30 31 32 33 34 38 42 
 43 
 37 
 1 3 4 5 6 7 8 9 10 11 12 13 
 14 15 16 17 18 20 21 24 25 26 27 28 
 29 30 31 32 33 35 36 37 38 39 41 43 
 44 
 32 
 1 3 4 5 8 9 10 11 12 14 15 18 
 19 20 21 23 24 25 26 27 29 31 32 33 
 35 36 37 38 40 41 42 43 
 40 
 1 2 3 4 5 6 7 8 9 10 11 14 
 15 16 17 19 20 21 22 23 24 25 26 27 
 28 29 30 31 32 33 34 35 36 37 39 40 
 41 42 43 44 
 33 
 1 2 3 4 5 6 7 8 9 10 11 14 
 15 17 18 19 20 21 22 23 25 29 30 32 
 34 35 37 38 39 40 42 43 44 
 27 
 1 3 5 7 8 11 12 13 14 15 16 18 
 19 20 21 26 28 29 30 31 32 34 36 37 
 41 42 43 
 35 
 1 3 5 6 7 8 9 10 11 12 13 14 
 15 16 17 18 19 20 21 22 23 24 25 27 
 28 29 30 32 33 35 36 39 40 41 43 
 24 
 2 3 4 5 6 9 10 11 12 13 15 16 
 17 18 19 20 23 25 26 28 32 34 38 44 
 36 
 1 3 4 5 6 7 8 9 10 12 14 16 
 17 19 20 21 22 23 24 25 27 28 29 31 
 32 33 34 35 36 37 38 39 40 41 42 43 
 35 
 1 4 5 6 7 8 9 10 11 12 13 14 
 15 16 17 18 19 20 21 22 23 24 26 28 
 29 31 32 33 35 37 38 39 40 41 43 
 32 
 1 2 3 5 6 7 9 11 12 13 14 15 
 16 17 19 20 22 23 24 26 27 30 32 33 
 35 36 37 38 39 40 42 43 
 26 
 2 3 4 5 6 8 10 13 15 17 19 20 
 21 22 23 24 25 26 27 30 34 36 40 41 
 42 44 
 34 
 2 4 6 7 8 10 11 14 15 16 17 18 
 19 20 21 22 24 25 26 27 28 29 30 31 
 32 33 35 38 39 40 41 42 43 44 
 3 
 15 19 38 
 11 
 1 4 11 20 23 24 29 30 41 42 43 
 10 
 8 10 18 22 25 29 37 38 41 42 
 9 
 1 6 16 18 22 26 29 34 43 
 20 
 6 7 8 10 12 15 16 17 19 21 23 27 
 29 32 33 37 38 39 40 43 
 41 
 1 2 3 4 5 6 7 8 9 10 11 13 
 14 15 16 17 18 19 20 21 22 23 24 25 
 26 27 28 29 31 32 33 34 35 36 37 38 
 40 41 42 43 44 
 16 
 7 9 10 14 19 22 23 29 31 32 33 35 
 38 40 41 43 
 15 
 4 5 10 12 19 20 21 23 27 28 29 30 
 37 42 43 
 32 
 3 5 6 8 9 10 11 13 14 16 17 18 
 20 21 23 24 25 26 27 28 29 30 31 32 
 33 34 35 38 40 41 42 44 
 43 
 1 2 3 4 5 6 7 8 9 10 11 12 
 13 14 15 16 17 18 19 20 21 22 23 24 
 25 26 27 28 29 30 31 32 33 35 36 37 
 38 39 40 41 42 43 44 
 5 
 1 6 31 34 40 
 40 
 1 2 3 4 5 6 7 8 9 10 11 12 
 13 16 17 19 20 21 22 23 24 25 26 27 
 28 29 30 31 32 33 34 35 36 37 38 39 
 40 42 43 44 
 10 
 1 6 14 17 28 31 36 37 38 40 
 24 
 3 4 8 10 11 12 13 14 16 17 18 21 
 22 23 26 30 31 33 35 36 38 40 42 43 
 31 
 1 3 4 5 6 8 9 10 11 14 15 16 
 17 18 20 21 23 25 26 28 29 31 32 33 
 34 35 36 37 41 42 44 
 42 
 1 3 4 5 6 7 8 9 10 11 12 13 
 14 15 16 17 18 19 20 21 22 23 24 25 
 26 27 28 29 30 31 32 33 34 35 36 38 
 39 40 41 42 43 44 
 29 
 1 3 4 5 6 8 9 11 12 14 16 18 
 19 20 21 22 23 25 26 30 32 34 35 36 
 37 38 39 41 44 
 12 
 5 9 12 20 21 25 29 30 31 36 39 40 
 15 
 5 6 8 14 17 20 23 26 28 31 32 35 
 39 41 42 
 5 
 23 24 32 33 37 
 10 
 3 16 20 26 27 31 33 35 38 40 
 40 
 1 2 3 4 5 7 8 9 10 11 12 13 
 14 15 16 17 18 19 20 21 22 23 24 25 
 26 27 30 31 32 33 34 35 36 37 38 39 
 40 41 42 43 
 7 
 4 12 19 22 26 40 41 
 12 
 4 6 10 13 15 24 27 28 29 32 40 44 
 36 
 1 2 3 5 6 7 8 9 10 11 12 13 
 14 15 17 18 19 20 25 26 27 28 29 31 
 32 33 34 35 36 37 38 39 41 42 43 44 
 36 
 1 2 4 5 6 7 8 9 10 11 12 13 
 14 16 17 18 19 21 22 23 24 26 28 29 
 30 31 32 34 35 36 37 38 39 41 43 44 
 8 
 13 15 27 33 37 39 40 42 
 37 
 1 2 3 4 6 8 9 10 12 13 14 16 
 17 18 19 21 22 23 24 25 27 28 29 31 
 32 33 34 35 36 37 38 39 40 41 42 43 
 44 
 12 
 5 8 9 11 12 14 16 23 35 38 40 42 
 4 
 8 15 32 38 
 14 
 1 3 4 10 12 13 15 16 17 31 33 37 
 41 43 
 25 
 3 4 6 7 8 9 13 14 15 16 17 18 
 21 22 23 24 25 28 30 31 34 35 40 41 
 42 
 19 
 1 2 4 6 7 13 15 16 17 20 25 27 
 30 31 34 37 40 42 44 
 17 
 3 5 7 11 14 17 18 22 23 27 29 30 
 33 37 40 41 43 
 7 
 3 7 21 22 27 36 37 
 8 
 7 13 18 19 23 32 41 42 
 20 
 2 4 12 13 16 18 19 22 23 24 26 27 
 29 31 33 35 36 38 39 42 
 29 
 1 2 5 7 8 10 13 16 17 18 19 20 
 23 24 27 28 29 30 31 32 34 35 36 37 
 38 39 41 42 44 
 44 
 1 2 3 4 5 6 7 8 9 10 11 12 
 13 14 15 16 17 18 19 20 21 22 23 24 
 25 26 27 28 29 30 31 32 33 34 35 36 
 37 38 39 40 41 42 43 44 
 19 
 1 3 4 6 10 11 14 15 17 19 20 21 
 22 27 28 32 34 37 43 
 11 
 4 5 12 15 17 21 28 32 35 36 38 
 34 
 1 3 4 5 6 7 10 11 12 13 14 15 
 16 17 18 19 22 23 24 25 27 29 30 31 
 33 35 36 37 38 39 41 42 43 44 
 16 
 2 3 5 7 8 10 11 12 20 22 23 32 
 33 35 36 42 
 7 
 11 20 24 26 33 40 43 
 17 
 3 6 7 8 17 20 22 25 26 29 30 31 
 35 39 41 42 44 
 3 
 9 20 21 
 38 
 1 2 3 4 5 6 7 8 9 10 11 13 
 14 15 16 17 18 19 20 21 22 24 25 26 
 27 28 30 31 32 33 34 35 36 37 39 41 
 42 44 
 7 
 7 9 16 31 32 38 42 
 24 
 3 4 6 9 10 11 15 16 17 18 20 21 
 22 24 26 27 28 33 36 37 40 41 43 44 
 11 
 8 16 18 21 22 27 29 36 38 42 43 
 21 
 1 2 3 6 8 12 13 17 19 23 25 27 
 29 32 33 34 35 36 41 42 44 
 44 
 1 2 3 4 5 6 7 8 9 10 11 12 
 13 14 15 16 17 18 19 20 21 22 23 24 
 25 26 27 28 29 30 31 32 33 34 35 36 
 37 38 39 40 41 42 43 44 
 42 
 1 2 3 4 5 6 7 8 9 10 11 12 
 13 14 15 16 17 18 19 20 21 22 23 24 
 25 26 27 29 30 31 32 33 34 35 36 37 
 38 39 40 42 43 44 
 15 
 3 4 11 14 17 23 24 28 30 31 32 33 
 35 37 38 
 43 
 1 2 3 4 5 6 7 8 9 10 11 12 
 13 14 15 16 17 18 19 20 21 22 23 24 
 25 26 27 28 29 30 31 32 34 35 36 37 
 38 39 40 41 42 43 44 
 23 
 3 4 5 7 8 10 11 12 13 15 16 17 
 20 22 23 24 29 31 32 35 38 39 44 
 16 
 1 4 5 6 7 10 13 14 16 18 21 33 
 34 35 37 38 
 26 
 1 6 7 8 9 10 11 12 13 17 18 20 
 21 22 25 26 29 30 31 34 36 39 40 42 
 43 44 
 28 
 1 2 3 4 5 8 9 11 12 14 16 18 
 19 20 21 25 27 29 34 35 36 37 38 39 
 40 41 42 43 
 14 
 2 4 9 11 16 19 21 28 29 33 39 41 
 42 44 
 16 
 3 4 6 16 18 19 20 25 28 32 34 35 
 36 37 38 39 
 20 
 2 3 4 5 6 10 11 12 13 15 16 21 
 22 25 26 29 30 31 37 40 
 35 
 2 4 5 6 7 8 10 11 12 13 14 15 
 18 19 20 21 22 24 25 26 27 29 31 32 
 33 34 35 36 37 38 39 40 41 43 44 
 31 
 1 3 4 5 6 7 8 9 10 11 12 14 
 15 17 19 20 21 23 25 26 27 28 31 32 
 33 34 35 36 37 38 40 
 18 
 7 8 13 15 16 17 20 21 30 31 34 35 
 36 38 39 40 41 44 
 21 
 1 5 11 12 15 16 18 19 20 22 24 27 
 28 29 31 33 35 38 39 40 41 
 20 
 4 5 10 12 13 14 17 20 22 23 24 25 
 26 27 28 31 35 38 39 43 
 4 
 2 16 34 41 
 37 
 1 3 4 5 6 7 9 10 11 12 13 14 
 15 16 17 20 21 22 23 24 25 26 27 28 
 29 30 31 32 33 35 36 37 39 41 42 43 
 44 
 22 
 1 2 8 10 14 15 17 18 19 21 24 26 
 27 31 32 34 35 39 40 41 43 44 
 32 
 2 4 6 7 8 10 11 12 15 16 18 19 
 20 21 23 24 25 26 27 28 30 32 33 34 
 35 37 38 39 40 41 43 44 
 27 
 2 3 5 6 7 8 11 12 14 15 16 17 
 18 19 23 24 25 26 28 29 30 31 32 37 
 40 41 44 
 25 
 1 3 6 7 8 9 10 12 13 15 18 19 
 22 24 26 28 29 30 32 34 36 37 40 41 
 43 
 5 
 13 28 30 38 43 
 33 
 1 2 3 4 7 12 13 14 15 16 17 19 
 20 21 22 23 24 25 26 27 28 29 30 32 
 33 34 35 37 38 40 41 42 43 
 26 
 3 4 5 6 8 11 12 13 14 16 17 18 
 20 21 22 23 25 26 30 32 35 39 40 42 
 43 44 
 22 
 3 4 8 9 12 15 16 19 21 22 23 24 
 25 27 30 33 36 38 39 41 42 44 
 18 
 3 7 8 9 12 16 17 18 19 23 27 28 
 31 34 37 38 40 41 
 3 
 14 26 34 
 26 
 1 3 4 6 9 11 12 16 17 19 20 21 
 22 26 29 30 31 32 33 35 36 37 38 40 
 41 42 
 7 
 10 16 25 37 38 43 44 
 4 
 11 16 20 43 
 11 
 1 2 9 10 11 12 13 14 15 24 34 
 30 
 1 3 4 6 7 8 10 11 14 15 16 17 
 19 20 22 23 26 27 28 29 30 31 32 33 
 35 36 38 39 41 42 
 13 
 4 5 7 15 17 18 22 27 31 33 35 38 
 44 
 8 
 4 18 21 32 35 38 39 41 
 38 
 1 2 3 4 5 6 7 8 9 10 11 13 
 14 15 16 17 18 21 22 23 24 25 26 27 
 28 29 30 31 32 34 36 38 39 40 41 42 
 43 44 
 4 
 3 12 14 18 
 28 
 1 2 3 4 5 6 10 11 12 14 15 17 
 18 20 24 25 26 27 28 29 31 33 34 37 
 38 40 41 43 
 30 
 1 2 4 7 8 9 10 11 12 13 14 16 
 17 18 19 22 23 24 26 28 29 30 32 33 
 34 37 38 40 41 43 
 8 
 1 4 22 32 36 39 40 42 
 26 
 3 5 6 7 8 11 12 13 14 15 17 18 
 19 25 26 27 29 31 32 33 36 37 39 40 
 41 43 
 2 
 12 34 
 17 
 5 6 7 8 11 12 13 15 18 22 23 26 
 29 38 39 41 42 
 44 
 1 2 3 4 5 6 7 8 9 10 11 12 
 13 14 15 16 17 18 19 20 21 22 23 24 
 25 26 27 28 29 30 31 32 33 34 35 36 
 37 38 39 40 41 42 43 44 
 9 
 3 10 13 26 27 31 32 34 43 
 25 
 2 3 4 7 9 10 13 15 18 19 20 23 
 27 28 29 30 31 32 33 36 38 39 40 41 
 44 
 12 
 2 3 6 7 11 18 22 30 34 35 39 41 
 20 
 1 3 9 10 11 20 21 22 23 24 25 29 
 30 32 33 35 38 41 42 44 
 8 
 5 11 13 21 29 30 31 37 
 42 
 1 2 3 4 5 6 7 8 9 10 11 13 
 14 16 17 18 19 20 21 22 23 24 25 26 
 27 28 29 30 31 32 33 34 35 36 37 38 
 39 40 41 42 43 44 
 27 
 2 3 4 5 6 7 9 10 15 16 17 19 
 22 23 24 25 26 29 30 33 36 38 39 40 
 41 43 44 
 36 
 1 3 4 5 6 7 8 9 11 12 13 14 
 16 17 18 19 20 21 23 24 25 26 27 28 
 31 32 33 35 36 37 38 39 40 41 43 44 
 26 
 3 4 6 7 9 11 12 13 14 15 16 20 
 21 22 24 26 27 28 29 31 32 35 36 38 
 39 44 
 42 
 1 2 3 4 5 6 7 8 9 10 11 12 
 13 14 15 16 17 18 19 20 21 22 23 24 
 25 26 27 28 29 30 31 32 33 34 35 36 
 37 38 41 42 43 44 
 17 
 2 4 6 7 9 13 16 17 18 30 31 32 
 35 39 40 41 44 
 19 
 1 3 5 8 13 14 15 16 19 21 22 25 
 29 31 32 33 37 38 41 
 41 
 1 2 3 4 5 7 8 9 10 12 13 14 
 15 16 17 18 19 20 21 22 23 24 26 27 
 28 29 30 31 32 33 34 35 36 37 38 39 
 40 41 42 43 44 
 3 
 13 14 36 
 8 
 10 11 17 18 21 26 31 35 
 12 
 1 3 11 14 19 22 25 26 35 36 37 42 
 4 
 6 23 40 43 
 17 
 3 5 11 12 14 17 18 19 23 25 28 31 
 32 34 36 38 40 
 41 
 1 2 3 4 5 6 7 8 9 10 11 12 
 13 14 15 16 17 18 20 21 22 24 25 26 
 27 28 29 30 31 32 33 34 36 37 38 39 
 40 41 42 43 44 
 35 
 1 3 4 5 7 8 9 10 11 12 13 14 
 15 17 18 19 20 21 22 23 24 25 26 28 
 30 31 32 34 35 37 39 41 42 43 44 
 18 
 1 4 6 7 9 10 12 13 15 17 23 26 
 29 30 33 39 40 44 
 43 
 1 2 3 4 5 6 7 8 9 10 11 12 
 13 14 15 16 17 18 19 20 21 22 23 24 
 25 26 27 28 29 30 31 32 33 34 35 36 
 37 38 40 41 42 43 44 
 33 
 1 2 5 6 7 8 9 10 11 12 14 15 
 16 17 18 19 20 22 23 24 27 28 29 30 
 31 32 33 34 35 38 39 41 42 
 27 
 2 3 4 5 6 7 8 9 11 12 19 20 
 23 24 26 27 28 29 32 33 34 37 38 39 
 41 42 43 
 34 
 1 3 4 5 7 8 9 11 12 13 14 15 
 17 19 21 23 24 25 26 27 28 29 30 31 
 32 35 36 37 38 39 40 41 42 43 
 6 
 9 16 23 28 30 33 
 15 
 2 4 6 7 8 9 26 28 29 33 35 38 
 42 43 44 
 42 
 1 2 3 4 5 6 7 8 9 10 11 12 
 13 14 15 17 18 19 20 21 22 23 24 25 
 26 27 28 29 30 31 33 34 35 36 37 38 
 39 40 41 42 43 44 
 33 
 3 4 5 9 10 11 13 15 17 18 19 20 
 21 23 24 25 26 27 28 29 30 31 32 33 
 35 36 37 38 39 40 42 43 44 
 26 
 1 2 3 4 7 8 9 11 12 14 15 16 
 17 19 20 21 25 28 29 32 35 36 38 40 
 42 43 
 14 
 3 4 6 13 17 21 24 27 33 35 36 37 
 41 43 
 19 
 1 2 3 4 5 8 11 13 16 18 23 28 
 29 30 32 33 35 38 39 
 44 
 1 2 3 4 5 6 7 8 9 10 11 12 
 13 14 15 16 17 18 19 20 21 22 23 24 
 25 26 27 28 29 30 31 32 33 34 35 36 
 37 38 39 40 41 42 43 44 
 32 
 2 3 6 7 8 9 10 11 12 13 15 16 
 17 18 19 20 21 22 23 25 26 27 31 32 
 33 34 35 36 37 40 41 43 
 8 
 2 13 15 16 23 24 26 35 
 14 
 1 4 5 7 11 12 20 21 29 33 39 40 
 43 44 
 23 
 3 4 5 6 7 9 11 13 14 17 20 22 
 24 25 26 28 32 35 36 38 39 40 41 
 18 
 1 4 5 12 13 15 17 18 19 22 26 30 
 33 36 38 40 42 44 
 34 
 1 2 3 4 5 6 7 10 11 12 14 15 
 16 17 19 20 21 22 24 25 26 27 29 30 
 31 32 36 37 39 40 41 42 43 44 
 